p cnf 13 59
1 -4 -2 0
11 -7 -9 0
12 -5 3 0
13 1 -2 0
-12 4 3 0
-6 4 -5 0
-7 3 -12 0
13 6 3 0
13 5 -12 0
-1 3 2 0
-5 7 10 0
7 6 -9 0
-8 7 5 0
-6 11 -13 0
2 -3 -6 0
5 8 -12 0
-11 -2 13 0
-3 11 -2 0
-8 -2 3 0
13 -8 3 0
-8 -11 -6 0
7 -4 9 0
-1 -13 -2 0
7 1 3 0
-9 12 -4 0
5 7 -2 0
-4 -1 12 0
13 -9 8 0
7 -6 -4 0
-1 -3 -8 0
13 1 11 0
13 -8 10 0
-10 8 -3 0
11 9 8 0
10 2 -13 0
13 -3 10 0
-5 -9 -8 0
-4 -6 -2 0
-8 -6 -7 0
-8 -1 -13 0
-2 -1 -4 0
-4 5 1 0
11 2 -8 0
-11 8 7 0
-10 2 -3 0
-3 -12 -11 0
13 11 -8 0
-7 13 12 0
-7 9 13 0
-7 9 -13 0
-5 7 8 0
5 8 -1 0
7 6 -5 0
2 -1 -9 0
2 -5 10 0
-13 -11 -5 0
-2 10 3 0
-9 -12 -5 0
-8 10 7 0
